p cnf 302 228
c p distribution  0.875 0.125
c p distribution  0.875 0.125
c p distribution  0.875 0.125
c p distribution  0.875 0.125
c p distribution  0.875 0.125
c p distribution  0.875 0.125
c p distribution  0.875 0.125
c p distribution  0.875 0.125
c p distribution  0.875 0.125
c p distribution  0.875 0.125
c p distribution  0.875 0.125
c p distribution  0.875 0.125
c p distribution  0.875 0.125
c p distribution  0.875 0.125
c p distribution  0.875 0.125
c p distribution  0.875 0.125
c p distribution  0.875 0.125
c p distribution  0.875 0.125
c p distribution  0.875 0.125
c p distribution  0.875 0.125
c p distribution  0.875 0.125
c p distribution  0.875 0.125
c p distribution  0.875 0.125
c p distribution  0.875 0.125
c p distribution  0.875 0.125
c p distribution  0.875 0.125
c p distribution  0.875 0.125
c p distribution  0.875 0.125
c p distribution  0.875 0.125
c p distribution  0.875 0.125
c p distribution  0.875 0.125
c p distribution  0.875 0.125
c p distribution  0.875 0.125
c p distribution  0.875 0.125
c p distribution  0.875 0.125
c p distribution  0.875 0.125
c p distribution  0.875 0.125
c p distribution  0.875 0.125
c p distribution  0.875 0.125
c p distribution  0.875 0.125
c p distribution  0.875 0.125
c p distribution  0.875 0.125
c p distribution  0.875 0.125
c p distribution  0.875 0.125
c p distribution  0.875 0.125
c p distribution  0.875 0.125
c p distribution  0.875 0.125
c p distribution  0.875 0.125
c p distribution  0.875 0.125
c p distribution  0.875 0.125
c p distribution  0.875 0.125
c p distribution  0.875 0.125
c p distribution  0.875 0.125
c p distribution  0.875 0.125
c p distribution  0.875 0.125
c p distribution  0.875 0.125
c p distribution  0.875 0.125
c p distribution  0.875 0.125
c p distribution  0.875 0.125
c p distribution  0.875 0.125
c p distribution  0.875 0.125
c p distribution  0.875 0.125
c p distribution  0.875 0.125
c p distribution  0.875 0.125
c p distribution  0.875 0.125
c p distribution  0.875 0.125
c p distribution  0.875 0.125
c p distribution  0.875 0.125
c p distribution  0.875 0.125
c p distribution  0.875 0.125
c p distribution  0.875 0.125
c p distribution  0.875 0.125
c p distribution  0.875 0.125
c p distribution  0.875 0.125
c p distribution  0.875 0.125
c p distribution  0.875 0.125
c p distribution  0.875 0.125
c p distribution  0.875 0.125
c p distribution  0.875 0.125
c p distribution  0.875 0.125
c p distribution  0.875 0.125
c p distribution  0.875 0.125
c p distribution  0.875 0.125
c p distribution  0.875 0.125
c p distribution  0.875 0.125
c p distribution  0.875 0.125
c p distribution  0.875 0.125
c p distribution  0.875 0.125
c p distribution  0.875 0.125
c p distribution  0.875 0.125
c p distribution  0.875 0.125
c p distribution  0.875 0.125
c p distribution  0.875 0.125
c p distribution  0.875 0.125
c p distribution  0.875 0.125
c p distribution  0.875 0.125
c p distribution  0.875 0.125
c p distribution  0.875 0.125
c p distribution  0.875 0.125
c p distribution  0.875 0.125
c p distribution  0.875 0.125
c p distribution  0.875 0.125
c p distribution  0.875 0.125
c p distribution  0.875 0.125
c p distribution  0.875 0.125
c p distribution  0.875 0.125
c p distribution  0.875 0.125
c p distribution  0.875 0.125
c p distribution  0.875 0.125
c p distribution  0.875 0.125
c p distribution  0.875 0.125
c p distribution  0.875 0.125
c p distribution  0.875 0.125
280 0
-286 0
252 -238 -1 0
238 -252 -1 0
246 -266 -3 0
266 -246 -3 0
289 -260 -5 0
260 -289 -5 0
233 -278 -7 0
278 -233 -7 0
250 -288 -9 0
288 -250 -9 0
232 -265 -11 0
265 -232 -11 0
248 -297 -13 0
297 -248 -13 0
289 -297 -15 0
297 -289 -15 0
281 -229 -17 0
229 -281 -17 0
297 -277 -19 0
277 -297 -19 0
234 -290 -21 0
290 -234 -21 0
249 -272 -23 0
272 -249 -23 0
234 -290 -25 0
290 -234 -25 0
235 -273 -27 0
273 -235 -27 0
248 -234 -29 0
234 -248 -29 0
286 -288 -31 0
288 -286 -31 0
264 -243 -33 0
243 -264 -33 0
228 -257 -35 0
257 -228 -35 0
237 -284 -37 0
284 -237 -37 0
253 -235 -39 0
235 -253 -39 0
246 -285 -41 0
285 -246 -41 0
281 -266 -43 0
266 -281 -43 0
260 -283 -45 0
283 -260 -45 0
294 -262 -47 0
262 -294 -47 0
288 -250 -49 0
250 -288 -49 0
235 -292 -51 0
292 -235 -51 0
286 -252 -53 0
252 -286 -53 0
289 -252 -55 0
252 -289 -55 0
232 -244 -57 0
244 -232 -57 0
268 -297 -59 0
297 -268 -59 0
236 -257 -61 0
257 -236 -61 0
268 -293 -63 0
293 -268 -63 0
246 -262 -65 0
262 -246 -65 0
241 -273 -67 0
273 -241 -67 0
241 -273 -69 0
273 -241 -69 0
231 -235 -71 0
235 -231 -71 0
288 -250 -73 0
250 -288 -73 0
289 -235 -75 0
235 -289 -75 0
288 -238 -77 0
238 -288 -77 0
234 -291 -79 0
291 -234 -79 0
289 -274 -81 0
274 -289 -81 0
299 -280 -83 0
280 -299 -83 0
279 -275 -85 0
275 -279 -85 0
289 -238 -87 0
238 -289 -87 0
265 -232 -89 0
232 -265 -89 0
236 -253 -91 0
253 -236 -91 0
246 -249 -93 0
249 -246 -93 0
286 -252 -95 0
252 -286 -95 0
236 -265 -97 0
265 -236 -97 0
274 -235 -99 0
235 -274 -99 0
268 -293 -101 0
293 -268 -101 0
244 -243 -103 0
243 -244 -103 0
289 -264 -105 0
264 -289 -105 0
260 -283 -107 0
283 -260 -107 0
252 -242 -109 0
242 -252 -109 0
297 -247 -111 0
247 -297 -111 0
248 -297 -113 0
297 -248 -113 0
256 -236 -115 0
236 -256 -115 0
279 -275 -117 0
275 -279 -117 0
295 -247 -119 0
247 -295 -119 0
301 -238 -121 0
238 -301 -121 0
228 -297 -123 0
297 -228 -123 0
229 -234 -125 0
234 -229 -125 0
258 -267 -127 0
267 -258 -127 0
246 -227 -129 0
227 -246 -129 0
248 -269 -131 0
269 -248 -131 0
263 -230 -133 0
230 -263 -133 0
260 -297 -135 0
297 -260 -135 0
263 -243 -137 0
243 -263 -137 0
252 -238 -139 0
238 -252 -139 0
242 -271 -141 0
271 -242 -141 0
240 -239 -143 0
239 -240 -143 0
255 -282 -145 0
282 -255 -145 0
258 -252 -147 0
252 -258 -147 0
279 -254 -149 0
254 -279 -149 0
259 -275 -151 0
275 -259 -151 0
289 -264 -153 0
264 -289 -153 0
241 -261 -155 0
261 -241 -155 0
248 -284 -157 0
284 -248 -157 0
289 -238 -159 0
238 -289 -159 0
263 -296 -161 0
296 -263 -161 0
276 -252 -163 0
252 -276 -163 0
289 -274 -165 0
274 -289 -165 0
263 -270 -167 0
270 -263 -167 0
248 -229 -169 0
229 -248 -169 0
246 -298 -171 0
298 -246 -171 0
235 -280 -173 0
280 -235 -173 0
289 -294 -175 0
294 -289 -175 0
234 -242 -177 0
242 -234 -177 0
234 -268 -179 0
268 -234 -179 0
289 -248 -181 0
248 -289 -181 0
234 -237 -183 0
237 -234 -183 0
282 -302 -185 0
302 -282 -185 0
276 -251 -187 0
251 -276 -187 0
270 -296 -189 0
296 -270 -189 0
252 -267 -191 0
267 -252 -191 0
255 -302 -193 0
302 -255 -193 0
245 -247 -195 0
247 -245 -195 0
300 -267 -197 0
267 -300 -197 0
260 -283 -199 0
283 -260 -199 0
234 -291 -201 0
291 -234 -201 0
236 -253 -203 0
253 -236 -203 0
246 -285 -205 0
285 -246 -205 0
248 -240 -207 0
240 -248 -207 0
242 -271 -209 0
271 -242 -209 0
246 -272 -211 0
272 -246 -211 0
288 -287 -213 0
287 -288 -213 0
280 -278 -215 0
278 -280 -215 0
252 -300 -217 0
300 -252 -217 0
289 -260 -219 0
260 -289 -219 0
234 -268 -221 0
268 -234 -221 0
263 -302 -223 0
302 -263 -223 0
235 -273 -225 0
273 -235 -225 0

